c Output_time 26.03.2020 18:15:45_+0100 1585242945344893889
c ** Program information **
c program_name                          "QBRG_debug"
c version                               "0.3.20"
c date                                  "25.3.2020"
c gid_id                                "673970833836058123f633335630c185360d632e"
c author                                "Oliver Kullmann"
c url                                   "https://github.com/OKullmann/oklibrary/blob/master/Satisfiability/Transformers/Generators/Random/QBRG.cpp"
c ** Machine information **
c machine_name                          "chyna-Lenovo-G50-70"
c bogomips                              3791.08
c ** Compilation information **
c compiler_version                      "g++ 7.5.0"
c compilation_date                      "Mar_26_2020 11:16:30"
c compilation_options                   "--std=c++17 -pedantic -fmax-errors=5 -Wall -Wextra -g -D_GLIBCXX_DEBUG"
c NDEBUG                                0
c OPTIMIZE                              0
c ** Parameters **
c command-line                          "./QBRG_debug" "a40 e40 a40 40" "761*1,1|2-2,1|3-3,1|4-4,1" "" "1,t" ""
c output                                "QuBlRaGe_160_761_1585242945344732341.qdimacs"
c options                               "filtered,renamed"
c num_quantifier_blocks                 4
c  quantifier_blocks                    1:a1-40 2:e41-80 3:a81-120 4:e121-160
c num_clause-blocks                     1
c  clause-blocks                        761 * {1-40,1,1/2} | {41-80,1,1/2} | {81-120,1,1/2} | {121-160,1,1/2}
c num_e-seeds                           37+2=39
c  e-seeds                              1 0 1 0 5 160 2 40 0 40 1 40 0 40 1 761 4 1 1 1 1 2 2 2 1 1 2 3 3 1 1 2 4 4 1 1 2 1 1585242945344731208
p cnf 160 761
a 1 2 3 4 5 6 7 8 9 10 11 12 13 14 15 16 17 18 19 20 21 22 23 24 25 26 27 28 29 30 31 32 33 34 35 36 37 38 39 40 0
e 41 42 43 44 45 46 47 48 49 50 51 52 53 54 55 56 57 58 59 60 61 62 63 64 65 66 67 68 69 70 71 72 73 74 75 76 77 78 79 80 0
a 81 82 83 84 85 86 87 88 89 90 91 92 93 94 95 96 97 98 99 100 101 102 103 104 105 106 107 108 109 110 111 112 113 114 115 116 117 118 119 120 0
e 121 122 123 124 125 126 127 128 129 130 131 132 133 134 135 136 137 138 139 140 141 142 143 144 145 146 147 148 149 150 151 152 153 154 155 156 157 158 159 160 0
-3 -75 -86 -121 0
-6 57 86 -121 0
38 73 -90 -121 0
-29 -66 97 -121 0
-30 73 100 -121 0
-25 75 102 -121 0
20 -50 105 -121 0
-5 78 106 -121 0
20 -77 110 -121 0
-19 71 -111 -121 0
26 59 -112 -121 0
-1 59 113 -121 0
-6 52 119 -121 0
-34 44 -82 121 0
28 60 89 121 0
-26 65 91 121 0
20 49 -95 121 0
-5 42 102 121 0
-7 -76 102 121 0
-11 54 -107 121 0
-2 -63 -87 -122 0
-35 65 -91 -122 0
-2 53 98 -122 0
34 60 101 -122 0
-25 60 -111 -122 0
-38 76 -115 -122 0
-15 -76 -120 -122 0
-11 -62 -82 122 0
-30 -58 -85 122 0
24 -77 -95 122 0
-3 65 98 122 0
-14 -77 98 122 0
24 -50 -101 122 0
-31 41 -105 122 0
14 61 105 122 0
13 45 -106 122 0
31 79 83 -123 0
-17 -58 89 -123 0
18 -44 -94 -123 0
35 70 -95 -123 0
-8 -47 99 -123 0
30 44 100 -123 0
34 -50 -101 -123 0
-21 -50 105 -123 0
-7 73 -106 -123 0
-16 42 -110 -123 0
36 58 113 -123 0
-18 77 -116 -123 0
14 56 119 -123 0
10 -66 94 123 0
-39 56 -95 123 0
-27 -42 -102 123 0
-5 -51 -112 123 0
-19 -70 112 123 0
34 57 -114 123 0
-18 -72 118 123 0
5 62 91 -124 0
27 54 -92 -124 0
38 51 -94 -124 0
-8 51 -99 -124 0
-17 -71 -99 -124 0
20 -49 -106 -124 0
-10 74 -106 -124 0
-22 42 109 -124 0
35 -76 113 -124 0
8 64 -116 -124 0
26 74 116 -124 0
-24 67 -119 -124 0
12 -57 -94 124 0
23 57 -95 124 0
35 71 -95 124 0
11 -57 96 124 0
3 -70 -97 124 0
25 69 97 124 0
-5 51 -105 124 0
16 63 -106 124 0
11 74 106 124 0
-26 47 -108 124 0
-13 58 112 124 0
22 42 117 124 0
-9 42 81 -125 0
-33 43 82 -125 0
7 -49 -88 -125 0
-3 43 -91 -125 0
22 -57 95 -125 0
36 -44 -96 -125 0
37 -72 -96 -125 0
15 51 99 -125 0
-8 70 102 -125 0
27 50 111 -125 0
-8 65 -112 -125 0
38 42 -118 -125 0
-18 -47 86 125 0
11 48 -95 125 0
6 48 -98 125 0
-25 -60 -99 125 0
-15 -49 99 125 0
-37 79 99 125 0
-29 -65 -107 125 0
-38 -68 -108 125 0
38 -54 -109 125 0
19 74 -116 125 0
11 -41 90 -126 0
-28 -63 -91 -126 0
2 49 104 -126 0
36 66 109 -126 0
20 41 -112 -126 0
-16 61 116 -126 0
9 79 118 -126 0
18 52 -119 -126 0
-16 54 92 126 0
-3 -74 -93 126 0
19 71 95 126 0
-17 -61 99 126 0
-1 -74 -107 126 0
21 -44 112 126 0
-21 -51 113 126 0
7 74 118 126 0
11 -79 119 126 0
-21 -62 90 -127 0
-20 -41 -92 -127 0
14 47 101 -127 0
31 -62 111 -127 0
-16 47 82 127 0
-1 48 88 127 0
29 75 102 127 0
-6 55 -108 127 0
-38 -47 -118 127 0
21 59 -119 127 0
-17 -72 119 127 0
-35 -61 82 -128 0
-29 -56 -83 -128 0
-17 -71 -83 -128 0
10 68 -89 -128 0
29 71 -97 -128 0
35 -76 100 -128 0
-30 49 -113 -128 0
3 -80 116 -128 0
-13 -52 81 128 0
-25 -41 -87 128 0
-34 45 105 128 0
27 -73 108 128 0
-14 -78 -112 128 0
31 70 -82 -129 0
33 62 103 -129 0
-28 63 -105 -129 0
6 -46 -109 -129 0
-39 55 110 -129 0
29 -56 116 -129 0
-7 -80 -118 -129 0
33 -41 -98 129 0
-40 43 101 129 0
6 -77 -103 129 0
-31 51 109 129 0
-32 -74 110 129 0
-23 49 -90 -130 0
23 -72 -94 -130 0
40 -69 -96 -130 0
-39 67 98 -130 0
37 46 100 -130 0
30 75 -83 130 0
6 44 83 130 0
35 42 90 130 0
-33 54 -93 130 0
5 -55 94 130 0
-5 75 100 130 0
20 -79 100 130 0
-18 -76 103 130 0
-9 47 -107 130 0
-34 -52 107 130 0
6 -58 -114 130 0
-30 60 -95 -131 0
28 78 97 -131 0
-39 -59 100 -131 0
10 -78 101 -131 0
30 -56 -103 -131 0
-5 56 -105 -131 0
40 70 120 -131 0
-13 66 -82 131 0
-38 45 -91 131 0
30 76 102 131 0
-16 -78 -114 131 0
-27 53 114 131 0
-32 -71 -115 131 0
-26 54 -116 131 0
8 57 -94 -132 0
-36 -76 -94 -132 0
-18 55 103 -132 0
32 72 -115 -132 0
-32 56 -85 132 0
-18 61 89 132 0
34 -69 -92 132 0
39 -60 -93 132 0
19 62 -98 132 0
-24 -56 98 132 0
14 63 106 132 0
-32 77 -111 132 0
1 69 -113 132 0
-19 -44 114 132 0
-9 -71 116 132 0
-13 51 82 -133 0
11 73 83 -133 0
-33 60 -84 -133 0
18 43 85 -133 0
-5 -51 -93 -133 0
-27 -74 94 -133 0
-20 74 -102 -133 0
8 -74 108 -133 0
25 -69 111 -133 0
-27 63 112 -133 0
17 -47 113 -133 0
27 -47 -114 -133 0
10 -61 81 133 0
-26 62 83 133 0
-12 52 -88 133 0
-2 -57 93 133 0
40 -56 94 133 0
-11 -52 -103 133 0
16 -75 -105 133 0
-33 56 -109 133 0
25 -62 111 133 0
8 80 -117 133 0
-20 64 -118 133 0
-26 44 82 -134 0
6 -74 83 -134 0
-12 -75 105 -134 0
15 45 -106 -134 0
22 -50 112 -134 0
3 -66 112 -134 0
-3 -62 114 -134 0
13 55 115 -134 0
-31 56 -117 -134 0
12 -45 -86 134 0
-8 -46 -88 134 0
21 55 93 134 0
34 -78 93 134 0
-11 78 -97 134 0
-15 54 99 134 0
29 -43 103 134 0
6 -72 103 134 0
23 -52 -106 134 0
4 51 -107 134 0
-24 -42 108 134 0
-20 69 115 134 0
-30 -65 -81 -135 0
-23 -42 -83 -135 0
31 -44 83 -135 0
-14 42 84 -135 0
28 -63 -85 -135 0
6 79 -86 -135 0
11 67 87 -135 0
33 68 -94 -135 0
4 65 -99 -135 0
28 -54 100 -135 0
29 -48 109 -135 0
30 48 -119 -135 0
-14 -53 -119 -135 0
29 64 89 135 0
-20 -79 90 135 0
29 -66 92 135 0
35 53 97 135 0
10 -44 -102 135 0
-18 53 -106 135 0
33 -75 109 135 0
-4 72 -111 135 0
31 -69 -115 135 0
27 -44 115 135 0
15 -46 -120 135 0
8 51 120 135 0
-32 -49 92 -136 0
20 66 94 -136 0
-15 76 -95 -136 0
27 78 95 -136 0
-24 76 -97 -136 0
34 -42 -102 -136 0
-5 -42 115 -136 0
38 -48 -116 -136 0
20 59 120 -136 0
11 -51 -86 136 0
4 -51 -91 136 0
21 -56 -97 136 0
16 -73 -97 136 0
14 68 111 136 0
-37 -50 -116 136 0
-17 67 119 136 0
8 -52 -84 -137 0
30 65 -88 -137 0
-17 -72 89 -137 0
24 -56 -95 -137 0
5 49 -98 -137 0
26 55 -100 -137 0
-36 -79 -102 -137 0
25 55 -115 -137 0
-6 -54 118 -137 0
-29 43 84 137 0
24 45 -94 137 0
-8 47 -95 137 0
2 -44 95 137 0
22 -55 95 137 0
-11 -59 -102 137 0
31 67 107 137 0
26 62 -108 137 0
1 -52 -109 137 0
-15 -52 110 137 0
35 -73 -113 137 0
-15 -49 -120 137 0
8 57 -85 -138 0
3 76 87 -138 0
-6 -73 89 -138 0
30 52 96 -138 0
29 -41 97 -138 0
-4 -56 -101 -138 0
35 52 101 -138 0
33 -42 -102 -138 0
37 49 108 -138 0
-13 42 109 -138 0
24 78 109 -138 0
-11 -79 -113 -138 0
26 71 81 138 0
-36 -52 86 138 0
5 66 -87 138 0
5 -42 -93 138 0
37 -69 93 138 0
-4 -49 94 138 0
-28 49 94 138 0
-6 -66 102 138 0
10 -61 -103 138 0
38 -56 104 138 0
32 -58 108 138 0
8 50 90 -139 0
-7 67 90 -139 0
2 -56 -109 -139 0
-19 51 -110 -139 0
31 78 116 -139 0
-31 52 -120 -139 0
-29 57 -82 139 0
15 -79 -83 139 0
-31 -74 88 139 0
28 51 95 139 0
29 52 -97 139 0
-16 -80 -100 139 0
-30 -49 101 139 0
-37 -43 110 139 0
-40 61 117 139 0
-32 46 82 -140 0
-7 -79 -87 -140 0
18 -45 -104 -140 0
11 -79 -113 -140 0
26 -58 89 140 0
-4 46 96 140 0
24 43 -97 140 0
3 76 -97 140 0
-28 -57 -99 140 0
19 54 -102 140 0
-22 -47 102 140 0
12 44 -110 140 0
17 -46 116 140 0
-13 -51 118 140 0
29 -55 81 -141 0
5 63 82 -141 0
23 61 83 -141 0
-20 64 86 -141 0
-19 80 87 -141 0
-34 73 89 -141 0
35 52 -94 -141 0
1 -69 -96 -141 0
37 -46 96 -141 0
-19 58 102 -141 0
40 -68 102 -141 0
23 -53 -104 -141 0
-40 -71 -105 -141 0
-26 66 105 -141 0
28 -54 109 -141 0
4 -50 110 -141 0
39 -42 -114 -141 0
-10 -60 -91 141 0
-23 53 91 141 0
27 -45 -96 141 0
5 -74 98 141 0
27 -56 103 141 0
25 45 106 141 0
6 -63 109 141 0
-17 -63 -118 141 0
9 -71 -87 -142 0
-25 71 -89 -142 0
-18 76 -96 -142 0
-14 -74 -111 -142 0
4 77 84 142 0
-16 -53 -86 142 0
18 41 86 142 0
-14 78 -89 142 0
-1 54 -94 142 0
-20 54 -95 142 0
10 75 100 142 0
2 -42 105 142 0
-39 -63 -109 142 0
-14 -74 -116 142 0
-29 -65 -81 -143 0
-18 -72 -82 -143 0
30 -74 90 -143 0
-9 43 -91 -143 0
-8 -73 92 -143 0
-2 -54 -94 -143 0
-19 -56 95 -143 0
2 -44 -97 -143 0
-13 48 98 -143 0
2 -70 -99 -143 0
22 79 100 -143 0
14 73 104 -143 0
-23 -48 106 -143 0
-1 -44 110 -143 0
-4 -66 -111 -143 0
-37 -53 -112 -143 0
-30 -65 -113 -143 0
-24 -53 -117 -143 0
-20 -50 83 143 0
26 -42 87 143 0
-20 -67 -90 143 0
-29 60 -91 143 0
-11 78 92 143 0
17 -49 -103 143 0
14 58 -111 143 0
-30 66 112 143 0
-29 -73 115 143 0
-40 56 -117 143 0
-39 -42 83 -144 0
34 51 -94 -144 0
24 -51 -99 -144 0
20 80 -104 -144 0
25 -79 -108 -144 0
19 -73 -111 -144 0
-22 75 -113 -144 0
3 -43 113 -144 0
2 -64 113 -144 0
-28 80 115 -144 0
2 -43 119 -144 0
27 65 -89 144 0
-38 -75 -89 144 0
-34 66 98 144 0
-21 53 -100 144 0
2 73 100 144 0
31 -67 -107 144 0
3 42 111 144 0
-34 -55 -112 144 0
36 78 116 144 0
-14 -49 -117 144 0
3 -57 82 -145 0
29 64 85 -145 0
14 -74 -90 -145 0
27 -76 91 -145 0
-17 51 94 -145 0
-26 -78 -102 -145 0
29 47 -114 -145 0
-7 -45 85 145 0
26 59 -87 145 0
1 -43 94 145 0
19 76 99 145 0
4 -71 -103 145 0
-22 64 107 145 0
24 -78 110 145 0
34 -50 -113 145 0
-25 51 116 145 0
8 79 -81 -146 0
22 -72 85 -146 0
-39 61 -86 -146 0
35 -52 91 -146 0
-11 50 -95 -146 0
-22 59 -95 -146 0
-18 80 -96 -146 0
-31 -55 96 -146 0
-5 42 -101 -146 0
-8 -72 -108 -146 0
7 -43 110 -146 0
-17 -60 -91 146 0
-1 80 -91 146 0
36 -43 -95 146 0
38 -50 -105 146 0
34 -72 81 -147 0
34 -44 -87 -147 0
-35 -75 -92 -147 0
-35 56 -93 -147 0
7 47 93 -147 0
-25 -61 94 -147 0
4 62 94 -147 0
-19 -58 -98 -147 0
40 50 101 -147 0
-36 -53 102 -147 0
25 -53 106 -147 0
6 67 -108 -147 0
-36 44 110 -147 0
13 -75 81 -148 0
-37 55 82 -148 0
4 -63 83 -148 0
9 -61 -85 -148 0
-27 -61 -90 -148 0
1 -57 90 -148 0
9 64 93 -148 0
-19 -46 -97 -148 0
10 -46 101 -148 0
14 -66 101 -148 0
16 -79 -102 -148 0
12 -76 -108 -148 0
-40 -79 108 -148 0
-32 -41 109 -148 0
33 -45 -112 -148 0
10 -59 114 -148 0
5 74 -120 -148 0
2 -63 -86 148 0
-31 -76 86 148 0
-2 -50 -87 148 0
17 -67 -87 148 0
-7 47 87 148 0
32 65 -91 148 0
13 78 94 148 0
-7 -60 98 148 0
24 61 100 148 0
33 -62 100 148 0
-24 46 109 148 0
-25 -63 113 148 0
-22 -78 -114 148 0
-4 79 116 148 0
19 -41 -82 -149 0
20 -63 83 -149 0
-36 80 85 -149 0
30 -48 -86 -149 0
-15 42 86 -149 0
-23 -43 -88 -149 0
-21 -73 -99 -149 0
24 41 103 -149 0
4 -63 111 -149 0
-32 -72 115 -149 0
26 -65 116 -149 0
-37 64 119 -149 0
-13 50 -81 149 0
24 78 83 149 0
24 52 85 149 0
-15 -58 87 149 0
-2 46 -91 149 0
-15 71 94 149 0
-25 72 94 149 0
-7 -69 104 149 0
-7 46 108 149 0
-21 -43 -110 149 0
30 73 110 149 0
28 72 87 -150 0
25 58 -88 -150 0
36 -57 -89 -150 0
-39 68 93 -150 0
-13 45 -94 -150 0
15 67 -98 -150 0
4 64 -99 -150 0
-9 55 -104 -150 0
-7 -70 -105 -150 0
-23 -80 105 -150 0
40 71 -106 -150 0
-24 48 109 -150 0
36 61 109 -150 0
13 -75 -118 -150 0
-9 76 82 150 0
3 -46 88 150 0
-5 -52 -97 150 0
7 74 -100 150 0
-34 -65 -101 150 0
16 -60 104 150 0
18 75 109 150 0
-18 -43 110 150 0
34 -76 -113 150 0
9 -60 -87 -151 0
-6 80 92 -151 0
-22 66 -96 -151 0
32 -74 -97 -151 0
36 -48 102 -151 0
-5 42 103 -151 0
-27 -55 -108 -151 0
10 77 108 -151 0
2 -78 109 -151 0
37 76 -110 -151 0
-22 -47 113 -151 0
-15 -47 86 151 0
-5 75 -93 151 0
10 73 -100 151 0
30 51 -113 151 0
-1 -76 -116 151 0
14 52 -119 151 0
-13 -57 120 151 0
-6 56 -83 -152 0
7 -64 88 -152 0
6 64 90 -152 0
14 -50 -92 -152 0
28 -59 92 -152 0
24 -74 -95 -152 0
19 58 -106 -152 0
25 47 -110 -152 0
26 -49 -114 -152 0
28 -55 -116 -152 0
2 -64 116 -152 0
2 58 -117 -152 0
31 -41 -82 152 0
-14 68 -98 152 0
38 58 -100 152 0
26 73 114 152 0
39 73 -115 152 0
-35 -76 119 152 0
30 -74 -88 -153 0
38 -74 94 -153 0
32 -72 95 -153 0
-17 78 97 -153 0
-27 -60 98 -153 0
24 55 -103 -153 0
10 55 -106 -153 0
-10 -78 108 -153 0
-38 -76 -116 -153 0
27 -55 119 -153 0
-39 59 -82 153 0
-13 57 90 153 0
30 -51 95 153 0
3 -60 99 153 0
-31 76 107 153 0
-37 -42 113 153 0
-32 54 -118 153 0
-8 71 85 -154 0
-20 -42 -91 -154 0
19 -55 -92 -154 0
-12 -60 -97 -154 0
-23 45 97 -154 0
-9 -41 -101 -154 0
-15 58 102 -154 0
-6 -78 104 -154 0
-3 -46 118 -154 0
-29 -75 118 -154 0
16 77 -87 154 0
-22 -48 92 154 0
-15 41 -93 154 0
-28 -61 95 154 0
-17 77 96 154 0
7 -59 -106 154 0
14 -77 -106 154 0
-36 -78 -107 154 0
-39 -65 -108 154 0
36 42 111 154 0
-27 -67 116 154 0
-18 43 117 154 0
-26 -55 117 154 0
-33 -62 117 154 0
16 69 -120 154 0
-31 -49 81 -155 0
9 -70 -82 -155 0
39 69 84 -155 0
7 -61 -87 -155 0
-10 70 -95 -155 0
-18 -53 -99 -155 0
-13 -61 101 -155 0
-1 75 103 -155 0
9 -56 -104 -155 0
-31 -55 111 -155 0
-27 -80 -81 155 0
29 -49 81 155 0
-33 -41 84 155 0
1 73 91 155 0
7 -54 94 155 0
-1 -51 -95 155 0
-1 -48 -99 155 0
-27 -65 110 155 0
13 -68 110 155 0
-39 -48 117 155 0
-29 -60 117 155 0
-32 63 118 155 0
-2 -61 -85 -156 0
19 45 86 -156 0
5 -48 98 -156 0
-18 50 -100 -156 0
10 -49 -103 -156 0
25 59 -106 -156 0
11 63 110 -156 0
9 -79 113 -156 0
-2 -44 116 -156 0
2 55 83 156 0
-39 54 -84 156 0
-4 50 86 156 0
31 67 -97 156 0
7 -54 -104 156 0
-10 -79 -116 156 0
27 58 116 156 0
26 -74 118 156 0
-17 -68 120 156 0
-32 71 92 -157 0
-31 -66 97 -157 0
24 73 -98 -157 0
32 -77 -103 -157 0
5 -61 104 -157 0
16 47 -115 -157 0
-30 67 -116 -157 0
28 79 -118 -157 0
32 -73 -120 -157 0
-4 -62 -85 157 0
33 60 86 157 0
27 61 -87 157 0
17 74 -98 157 0
-15 -59 -101 157 0
20 46 -103 157 0
33 -72 105 157 0
33 79 105 157 0
-13 -50 115 157 0
-40 -44 -117 157 0
-31 -48 97 -158 0
-24 62 99 -158 0
-1 -53 101 -158 0
13 -62 -102 -158 0
27 -74 104 -158 0
-40 78 114 -158 0
25 -53 117 -158 0
13 76 -81 158 0
-10 79 86 158 0
21 59 -89 158 0
27 -70 -91 158 0
-3 -64 94 158 0
-18 -54 -96 158 0
-30 -68 -97 158 0
39 -64 -101 158 0
25 -73 107 158 0
9 79 -114 158 0
27 71 116 158 0
-39 49 -119 158 0
31 73 81 -159 0
26 52 -84 -159 0
-12 -53 87 -159 0
28 -54 87 -159 0
-12 -55 88 -159 0
35 -58 -92 -159 0
-40 78 92 -159 0
-35 70 99 -159 0
-20 52 -108 -159 0
33 -41 -118 -159 0
10 44 84 159 0
-12 -79 85 159 0
27 72 88 159 0
-15 -65 -97 159 0
-14 -46 97 159 0
-28 79 101 159 0
37 61 -112 159 0
-27 70 115 159 0
-10 76 -119 159 0
9 75 120 159 0
-4 74 -82 -160 0
-2 44 82 -160 0
-14 -80 -87 -160 0
-13 -58 -91 -160 0
4 -42 91 -160 0
15 -51 100 -160 0
-37 63 -101 -160 0
22 74 101 -160 0
1 80 105 -160 0
11 42 109 -160 0
-38 -74 116 -160 0
-23 71 -96 160 0
21 -51 96 160 0
14 -55 98 160 0
-39 -58 101 160 0
-28 60 -110 160 0
-7 63 -112 160 0
-5 -65 114 160 0
